Geographic Exponential Decay
20 57 220 69 141 45 296 50 279 22 168 145 204 214 78 105 152 153 302 195 252
p edge 320 319
e 0 234 1.0
e 1 132 5.0
e 1 0 1.0
e 2 257 8.0
e 2 1 6.0
e 3 290 1.0
e 3 2 10.0
e 4 318 1.0
e 4 3 1.0
e 5 295 10.0
e 5 4 10.0
e 6 288 1.0
e 6 173 11.0
e 6 5 7.0
e 7 32 2.0
e 7 6 1.0
e 8 251 4.0
e 8 7 5.0
e 9 171 16.0
e 9 8 4.0
e 10 140 5.0
e 10 9 11.0
e 11 252 59.0
e 11 10 5.0
e 12 60 1.0
e 12 11 2.0
e 13 236 5.0
e 13 12 10.0
e 14 36 6.0
e 14 13 7.0
e 15 16 2.0
e 15 14 1.0
e 17 72 12.0
e 17 15 1.0
e 18 176 1.0
e 18 17 5.0
e 19 150 8.0
e 19 18 8.0
e 20 259 2.0
e 20 19 1.0
e 21 218 1.0
e 21 20 7.0
e 22 231 91.0
e 22 120 88.0
e 22 211 53.0
e 22 88 60.0
e 22 190 56.0
e 22 21 50.0
e 23 83 15.0
e 23 161 6.0
e 23 22 43.0
e 24 262 2.0
e 24 23 1.0
e 25 133 1.0
e 25 24 1.0
e 26 282 1.0
e 26 25 1.0
e 27 102 1.0
e 27 26 2.0
e 28 120 17.0
e 29 256 10.0
e 29 311 23.0
e 29 27 4.0
e 30 86 5.0
e 30 29 23.0
e 31 315 2.0
e 31 30 3.0
e 33 136 3.0
e 33 31 5.0
e 34 303 1.0
e 34 33 2.0
e 35 191 6.0
e 35 34 2.0
e 37 87 10.0
e 37 35 6.0
e 38 232 3.0
e 38 37 2.0
e 39 146 1.0
e 39 38 2.0
e 40 221 20.0
e 40 126 22.0
e 40 39 25.0
e 41 289 3.0
e 41 40 15.0
e 42 49 2.0
e 42 41 2.0
e 43 99 1.0
e 43 42 2.0
e 44 135 1.0
e 44 43 3.0
e 45 122 17.0
e 45 310 50.0
e 45 199 79.0
e 45 116 43.0
e 45 239 22.0
e 45 44 42.0
e 46 194 1.0
e 46 45 53.0
e 47 48 2.0
e 47 46 2.0
e 50 267 92.0
e 50 51 9.0
e 50 158 78.0
e 50 137 27.0
e 50 52 91.0
e 50 47 9.0
e 53 264 2.0
e 53 50 68.0
e 54 212 23.0
e 55 302 10.0
e 55 53 1.0
e 56 181 19.0
e 56 57 61.0
e 56 55 18.0
e 57 186 21.0
e 57 80 31.0
e 57 143 59.0
e 57 205 64.0
e 58 213 1.0
e 58 56 1.0
e 59 123 4.0
e 59 58 4.0
e 61 98 6.0
e 61 59 3.0
e 62 201 2.0
e 62 61 1.0
e 63 149 3.0
e 63 62 2.0
e 64 65 6.0
e 64 63 4.0
e 66 67 2.0
e 66 64 1.0
e 67 68 3.0
e 69 220 87.0
e 69 225 84.0
e 69 240 55.0
e 69 124 5.0
e 69 81 71.0
e 69 66 93.0
e 70 79 2.0
e 70 69 26.0
e 71 291 2.0
e 71 70 4.0
e 73 114 1.0
e 73 71 1.0
e 74 75 5.0
e 74 73 2.0
e 76 227 2.0
e 76 74 1.0
e 77 277 4.0
e 77 76 1.0
e 78 82 55.0
e 78 212 39.0
e 78 141 41.0
e 78 283 29.0
e 78 84 17.0
e 85 241 3.0
e 85 77 4.0
e 89 101 2.0
e 89 85 2.0
e 90 91 1.0
e 90 89 1.0
e 92 141 48.0
e 93 284 1.0
e 93 90 2.0
e 94 127 1.0
e 94 93 1.0
e 95 96 2.0
e 95 94 1.0
e 97 100 5.0
e 97 95 1.0
e 103 255 4.0
e 103 97 1.0
e 104 222 2.0
e 104 103 1.0
e 105 155 49.0
e 105 230 5.0
e 105 106 88.0
e 105 310 71.0
e 105 107 69.0
e 108 109 1.0
e 108 104 2.0
e 110 252 20.0
e 111 188 1.0
e 111 108 1.0
e 112 226 22.0
e 112 113 13.0
e 112 111 4.0
e 115 117 18.0
e 115 118 7.0
e 115 112 14.0
e 119 121 1.0
e 119 115 1.0
e 125 128 3.0
e 125 119 4.0
e 129 130 3.0
e 129 125 1.0
e 131 134 3.0
e 131 129 1.0
e 138 246 2.0
e 138 131 2.0
e 139 184 1.0
e 139 138 5.0
e 141 314 67.0
e 141 171 36.0
e 141 281 71.0
e 142 144 1.0
e 142 139 1.0
e 145 147 81.0
e 145 228 87.0
e 145 172 93.0
e 145 148 88.0
e 145 151 67.0
e 145 142 98.0
e 152 153 23.0
e 152 154 51.0
e 152 202 29.0
e 152 156 36.0
e 152 243 24.0
e 152 145 32.0
e 153 159 22.0
e 153 292 60.0
e 153 157 28.0
e 153 160 74.0
e 162 163 1.0
e 162 152 47.0
e 164 165 2.0
e 164 162 3.0
e 166 229 1.0
e 166 164 1.0
e 167 206 9.0
e 167 166 1.0
e 168 169 22.0
e 168 245 27.0
e 168 170 1.0
e 168 215 53.0
e 168 174 33.0
e 168 167 65.0
e 170 312 21.0
e 175 177 1.0
e 175 168 50.0
e 178 285 4.0
e 178 175 4.0
e 179 180 6.0
e 179 178 4.0
e 182 233 24.0
e 182 183 1.0
e 182 179 4.0
e 185 187 5.0
e 185 182 13.0
e 189 244 6.0
e 189 185 1.0
e 192 193 24.0
e 192 189 3.0
e 193 195 20.0
e 195 196 72.0
e 195 265 71.0
e 195 197 5.0
e 195 247 84.0
e 198 200 23.0
e 198 203 3.0
e 198 192 7.0
e 204 207 93.0
e 204 250 32.0
e 204 208 82.0
e 204 209 80.0
e 204 263 6.0
e 204 198 79.0
e 210 314 14.0
e 214 216 81.0
e 214 266 26.0
e 214 217 68.0
e 214 219 6.0
e 214 296 70.0
e 214 204 51.0
e 220 268 36.0
e 220 223 50.0
e 220 235 38.0
e 220 294 55.0
e 224 237 1.0
e 224 214 72.0
e 238 242 1.0
e 238 224 3.0
e 248 249 2.0
e 249 252 8.0
e 252 253 68.0
e 252 269 55.0
e 254 258 2.0
e 254 238 3.0
e 260 261 2.0
e 260 254 6.0
e 266 287 24.0
e 270 271 1.0
e 270 260 1.0
e 272 273 2.0
e 272 270 1.0
e 274 275 7.0
e 274 272 12.0
e 276 278 2.0
e 276 274 6.0
e 279 280 46.0
e 279 286 90.0
e 279 293 35.0
e 279 296 37.0
e 279 297 72.0
e 296 298 26.0
e 296 299 62.0
e 296 316 22.0
e 300 301 2.0
e 300 276 5.0
e 302 304 84.0
e 302 305 73.0
e 302 306 33.0
e 302 307 87.0
e 304 308 2.0
e 309 313 1.0
e 309 300 1.0
e 317 319 2.0
e 317 309 1.0
